Minimize
  - 48 y_0 - 60 y_1 - 46 y_2 - 41 y_3 - 38 y_4 - 45 y_5 - 53 y_7 - 19 y_8
   - 16 y_9 - 60 y_10 - 33 y_11 - 55 y_12 - 42 y_13 - 14 y_14 - 42 y_15
   - 5 y_16 - 34 y_17 - 38 y_18 - 65 y_19 - 13 y_20 - y_21 - 50 y_22
   - 38 y_23 - 28 y_24 - 30 y_25 - 46 y_26 - 48 y_27 - 42 y_28 - 47 y_29
   - 50 y_30 - 41 y_31 - 48 y_32 - 44 y_33 - 25 y_34 - 42 y_35 - 49 y_36
   - 56 y_37 - 34 y_38 - 51 y_39 - 40 y_40 - 45 y_41 - 18 y_42 - 42 y_43
   - 46 y_44 - 35 y_45 - 42 y_46 - 24 y_47 - 43 y_48 - 38 y_49
   + 1910 Constant
Subject To
 c_0: y_48 = 1
 c_1_0: y_0 + y_32 >= 1
 c_1_1: y_1 >= 1
 c_1_2: y_2 + y_33 >= 1
 c_1_3: y_3 + y_13 >= 1
 c_1_4: y_4 + y_23 >= 1
 c_1_5: y_5 >= 1
 c_1_6: y_6 + y_21 >= 1
 c_1_7: y_7 + y_30 + y_39 >= 1
 c_1_8: y_8 >= 1
 c_1_9: y_9 + y_42 >= 1
 c_1_10: y_10 >= 1
 c_1_11: y_11 >= 1
 c_1_12: y_12 >= 1
 c_1_13: y_3 + y_13 + y_48 >= 1
 c_1_14: y_14 >= 1
 c_1_15: y_15 + y_35 >= 1
 c_1_16: y_16 >= 1
 c_1_17: y_17 >= 1
 c_1_18: y_18 >= 1
 c_1_19: y_19 >= 1
 c_1_20: y_20 >= 1
 c_1_21: y_6 + y_21 >= 1
 c_1_22: y_22 >= 1
 c_1_23: y_4 + y_23 >= 1
 c_1_24: y_24 >= 1
 c_1_25: y_25 >= 1
 c_1_26: y_26 >= 1
 c_1_27: y_27 >= 1
 c_1_28: y_28 + y_46 >= 1
 c_1_29: y_29 >= 1
 c_1_30: y_7 + y_30 + y_39 >= 1
 c_1_31: y_31 + y_43 >= 1
 c_1_32: y_0 + y_32 >= 1
 c_1_33: y_2 + y_33 >= 1
 c_1_34: y_34 >= 1
 c_1_35: y_15 + y_35 >= 1
 c_1_36: y_36 >= 1
 c_1_37: y_37 >= 1
 c_1_38: y_38 >= 1
 c_1_39: y_7 + y_30 + y_39 >= 1
 c_1_40: y_40 >= 1
 c_1_41: y_41 + y_44 >= 1
 c_1_42: y_9 + y_42 >= 1
 c_1_43: y_31 + y_43 >= 1
 c_1_44: y_41 + y_44 >= 1
 c_1_45: y_45 >= 1
 c_1_46: y_28 + y_46 >= 1
 c_1_47: y_47 >= 1
 c_1_48: y_13 + y_48 >= 1
 c_1_49: y_49 >= 1
Bounds
 Constant = 1
Binaries
 y_0 y_1 y_2 y_3 y_4 y_5 y_6 y_7 y_8 y_9 y_10 y_11 y_12 y_13 y_14 y_15 y_16
 y_17 y_18 y_19 y_20 y_21 y_22 y_23 y_24 y_25 y_26 y_27 y_28 y_29 y_30 y_31
 y_32 y_33 y_34 y_35 y_36 y_37 y_38 y_39 y_40 y_41 y_42 y_43 y_44 y_45 y_46
 y_47 y_48 y_49
End
